tsp_instances/TSP20/instance99.tsp
NODE_COORD_SECTION
0 86 100
1 77 143
2 74 95
3 35 108
4 141 131
5 50 102
6 145 194
7 74 155
8 138 74
9 130 48
10 182 80
11 76 189
12 143 160
13 46 24
14 136 88
15 144 137
16 69 70
17 0 167
18 96 92
19 38 78
