tsp_instances/TSP20/instance99.opt.tour
TOUR_SECTION
1
3
17
14
20
6
4
18
2
8
12
7
13
16
5
11
10
9
15
19
-1